(declare-const type_err0 Int)
(declare-const gl_list.next@pos Int)
(declare-const term_to_project_onto8_integralized Int)
(declare-const next@width Int)
(declare-const term_to_project_onto2_integralized Int)
(declare-const |__cil_tmp4'| Int)
(declare-const __cil_tmp4 Int)
(declare-const tr Int)
(declare-const tr0 Int)
(declare-const |next@width'| Int)
(declare-const |gl_list.next@width'| Int)
(declare-const term_to_project_onto9_integralized Int)
(declare-const term_to_project_onto5_integralized Int)
(declare-const store Int)
(declare-const |next'| Int)
(declare-const term_to_project_onto6_integralized Int)
(declare-const gl_list.next@width Int)
(declare-const term_to_project_onto3_integralized Int)
(declare-const term_to_project_onto1_integralized Int)
(declare-const |next@pos'| Int)
(declare-const __cil_tmp3 Int)
(declare-const term_to_project_onto4_integralized Int)
(declare-const term_to_project_onto0_integralized Int)
(declare-const type_err Int)
(declare-const gl_list.next Int)
(declare-const |param0@pos'| Int)
(declare-const term_to_project_onto_integralized Int)
(declare-const term_to_project_onto7_integralized Int)
(declare-const |gl_list.next@pos'| Int)
(declare-const |param0'| Int)
(declare-const next@pos Int)
(declare-const |__cil_tmp3'| Int)
(declare-const param0@width Int)
(declare-const store0 Int)
(declare-const param0@pos Int)
(declare-const store1 Int)
(declare-const param0 Int)
(declare-const |gl_list.next'| Int)
(declare-const next Int)
(declare-const |param0@width'| Int)
(assert (and (or (<= (+ (- tr) tr0 1) 0) (<= (+ tr (- tr0) 1) 0))
               (= (+ (- type_err0) |param0@width'|) 0)
               (= (+ |next@width'| (- type_err0)) 0)
               (= (+ (- store1) |gl_list.next@width'|) 0)
               (= (+ (- type_err) |param0@pos'| 4) 0)
               (= (+ |next@pos'| (- type_err)) 0)
               (= (+ (- store0) |gl_list.next@pos'|) 0)
               (= (+ |param0'| (- tr) 4) 0) (= (+ |__cil_tmp4'| (- tr0)) 0)
               (= (+ |__cil_tmp3'| (- tr)) 0) (= (+ |next'| (- tr)) 0)
               (= (+ (- store) |gl_list.next'|) 0)
               (= (+ term_to_project_onto9_integralized
                       (- (+ |gl_list.next'| (- gl_list.next)))) 0)
               (= (+ term_to_project_onto8_integralized
                       (- (+ |next'| (- next)))) 0)
               (= (+ term_to_project_onto7_integralized
                       (- (+ |__cil_tmp3'| (- __cil_tmp3)))) 0)
               (= (+ term_to_project_onto6_integralized
                       (- (+ |__cil_tmp4'| (- __cil_tmp4)))) 0)
               (= (+ term_to_project_onto5_integralized
                       (- (+ |param0'| (- param0)))) 0)
               (= (+ term_to_project_onto4_integralized
                       (- (+ |gl_list.next@pos'| (- gl_list.next@pos)))) 0)
               (= (+ term_to_project_onto3_integralized
                       (- (+ |next@pos'| (- next@pos)))) 0)
               (= (+ term_to_project_onto2_integralized
                       (- (+ |param0@pos'| (- param0@pos)))) 0)
               (= (+ term_to_project_onto1_integralized
                       (- (+ |gl_list.next@width'| (- gl_list.next@width)))) 0)
               (= (+ term_to_project_onto0_integralized
                       (- (+ |next@width'| (- next@width)))) 0)
               (= (+ term_to_project_onto_integralized
                       (- (+ |param0@width'| (- param0@width)))) 0)))
(check-sat)